benchmarks_CP/INST_49x49/40/inst49x49_40_30.dzn
S=7;
start=[|
-1,	12,	16,	-1,	-1,	-1,	-1,	-1,	-1,	-1,	-1,	-1,	-1,	-1,	-1,	26,	7,	20,	-1,	-1,	-1,	-1,	-1,	-1,	25,	-1,	-1,	-1,	42,	49,	-1,	-1,	-1,	-1,	2,	-1,	-1,	-1,	-1,	15,	29,	-1,	10,	-1,	21,	-1,	-1,	-1,	9|
5,	-1,	-1,	-1,	20,	-1,	-1,	-1,	-1,	-1,	-1,	1,	48,	-1,	43,	14,	-1,	-1,	-1,	-1,	13,	12,	-1,	-1,	37,	-1,	31,	-1,	-1,	-1,	-1,	-1,	-1,	-1,	-1,	49,	-1,	-1,	-1,	-1,	-1,	38,	4,	-1,	-1,	33,	-1,	-1,	2|
45,	24,	-1,	-1,	2,	-1,	-1,	-1,	-1,	-1,	-1,	-1,	40,	-1,	-1,	37,	-1,	-1,	-1,	-1,	-1,	30,	27,	20,	-1,	-1,	23,	-1,	33,	-1,	39,	48,	-1,	32,	5,	26,	44,	-1,	42,	-1,	-1,	-1,	31,	46,	-1,	-1,	49,	-1,	14|
25,	-1,	-1,	-1,	9,	11,	10,	-1,	34,	-1,	-1,	-1,	7,	37,	1,	-1,	-1,	-1,	-1,	35,	46,	19,	-1,	-1,	2,	8,	18,	29,	44,	36,	21,	16,	-1,	-1,	-1,	-1,	20,	13,	-1,	40,	-1,	43,	45,	-1,	-1,	-1,	-1,	-1,	39|
-1,	41,	-1,	-1,	39,	36,	-1,	-1,	-1,	-1,	23,	-1,	-1,	-1,	28,	11,	49,	25,	-1,	15,	-1,	35,	-1,	10,	-1,	-1,	-1,	21,	9,	-1,	20,	-1,	18,	45,	40,	-1,	16,	-1,	22,	2,	-1,	-1,	3,	-1,	-1,	34,	-1,	-1,	-1|
-1,	-1,	-1,	46,	38,	-1,	43,	2,	-1,	25,	47,	-1,	49,	29,	44,	41,	-1,	-1,	-1,	-1,	-1,	-1,	4,	-1,	9,	-1,	42,	39,	-1,	-1,	-1,	34,	-1,	28,	26,	33,	37,	45,	-1,	5,	24,	36,	30,	-1,	7,	32,	40,	15,	-1|
6,	17,	30,	-1,	13,	-1,	-1,	24,	42,	-1,	-1,	-1,	-1,	-1,	22,	16,	-1,	-1,	32,	-1,	-1,	15,	45,	-1,	41,	-1,	-1,	-1,	-1,	-1,	46,	25,	-1,	-1,	-1,	-1,	4,	34,	48,	-1,	-1,	-1,	44,	36,	12,	-1,	-1,	-1,	-1|
-1,	-1,	17,	-1,	-1,	-1,	-1,	31,	-1,	-1,	-1,	-1,	15,	-1,	-1,	22,	26,	-1,	49,	-1,	5,	-1,	-1,	30,	-1,	-1,	-1,	32,	-1,	-1,	-1,	-1,	-1,	43,	27,	45,	12,	-1,	-1,	1,	14,	-1,	-1,	-1,	-1,	-1,	-1,	47,	23|
-1,	-1,	-1,	-1,	26,	21,	-1,	-1,	13,	-1,	-1,	-1,	24,	-1,	12,	36,	-1,	37,	-1,	17,	1,	-1,	3,	2,	-1,	14,	-1,	11,	-1,	-1,	49,	-1,	42,	38,	45,	-1,	-1,	-1,	41,	44,	-1,	33,	-1,	-1,	18,	-1,	-1,	-1,	-1|
-1,	-1,	-1,	32,	-1,	-1,	-1,	-1,	-1,	20,	-1,	-1,	-1,	-1,	-1,	-1,	47,	42,	-1,	16,	-1,	-1,	-1,	-1,	-1,	21,	6,	5,	-1,	-1,	15,	-1,	-1,	-1,	-1,	-1,	-1,	11,	29,	-1,	22,	-1,	8,	-1,	-1,	-1,	-1,	37,	-1|
3,	-1,	49,	16,	30,	23,	-1,	-1,	41,	-1,	5,	-1,	-1,	34,	-1,	-1,	4,	-1,	-1,	-1,	45,	-1,	-1,	-1,	-1,	9,	-1,	-1,	19,	-1,	-1,	-1,	46,	20,	-1,	-1,	-1,	-1,	24,	18,	-1,	-1,	-1,	-1,	27,	-1,	-1,	-1,	-1|
19,	28,	-1,	-1,	41,	-1,	-1,	4,	-1,	-1,	37,	12,	25,	-1,	40,	-1,	15,	8,	9,	33,	-1,	-1,	47,	-1,	-1,	39,	29,	22,	-1,	31,	3,	-1,	32,	35,	18,	46,	-1,	-1,	-1,	-1,	2,	-1,	-1,	-1,	10,	-1,	-1,	-1,	-1|
33,	-1,	-1,	12,	-1,	47,	-1,	11,	-1,	-1,	26,	32,	-1,	14,	-1,	-1,	-1,	-1,	44,	-1,	2,	40,	-1,	-1,	1,	17,	-1,	35,	21,	-1,	5,	9,	8,	-1,	-1,	-1,	43,	-1,	-1,	-1,	48,	-1,	15,	-1,	-1,	-1,	-1,	-1,	24|
-1,	-1,	37,	-1,	24,	-1,	-1,	40,	-1,	-1,	21,	47,	27,	18,	-1,	32,	30,	-1,	39,	-1,	20,	-1,	-1,	15,	36,	-1,	-1,	43,	29,	-1,	13,	7,	44,	12,	14,	-1,	17,	4,	-1,	-1,	-1,	-1,	-1,	-1,	-1,	-1,	-1,	-1,	11|
22,	-1,	8,	-1,	-1,	-1,	28,	17,	-1,	-1,	30,	-1,	26,	-1,	-1,	-1,	-1,	-1,	43,	32,	-1,	41,	14,	25,	-1,	-1,	33,	12,	49,	-1,	-1,	-1,	20,	21,	-1,	34,	-1,	-1,	-1,	38,	40,	45,	-1,	44,	15,	-1,	-1,	-1,	-1|
17,	-1,	-1,	-1,	-1,	-1,	41,	13,	-1,	-1,	-1,	-1,	-1,	-1,	45,	-1,	9,	40,	28,	-1,	-1,	3,	-1,	-1,	7,	-1,	-1,	-1,	48,	-1,	19,	-1,	24,	-1,	37,	-1,	18,	33,	-1,	-1,	-1,	-1,	-1,	-1,	4,	-1,	27,	-1,	-1|
21,	-1,	-1,	-1,	-1,	40,	-1,	-1,	-1,	-1,	42,	-1,	-1,	-1,	-1,	-1,	-1,	-1,	10,	20,	15,	-1,	-1,	-1,	13,	-1,	47,	-1,	-1,	1,	-1,	-1,	7,	-1,	-1,	28,	-1,	-1,	3,	14,	-1,	-1,	43,	-1,	32,	24,	37,	18,	-1|
-1,	14,	-1,	-1,	-1,	10,	12,	-1,	-1,	-1,	34,	20,	-1,	-1,	-1,	-1,	-1,	4,	-1,	-1,	38,	32,	-1,	-1,	-1,	-1,	-1,	-1,	-1,	-1,	45,	2,	-1,	-1,	-1,	-1,	-1,	-1,	7,	-1,	-1,	-1,	-1,	-1,	-1,	-1,	25,	28,	-1|
-1,	44,	9,	-1,	18,	-1,	11,	48,	-1,	32,	-1,	-1,	39,	10,	-1,	-1,	-1,	34,	-1,	-1,	-1,	-1,	-1,	31,	-1,	-1,	27,	2,	43,	-1,	28,	-1,	25,	29,	15,	4,	36,	-1,	26,	-1,	-1,	-1,	-1,	33,	-1,	46,	-1,	7,	30|
-1,	47,	-1,	-1,	-1,	2,	23,	6,	-1,	-1,	-1,	7,	-1,	35,	26,	-1,	-1,	-1,	-1,	46,	-1,	-1,	-1,	4,	-1,	-1,	17,	-1,	27,	-1,	-1,	31,	30,	-1,	41,	-1,	-1,	-1,	19,	-1,	-1,	-1,	-1,	-1,	38,	-1,	8,	-1,	49|
24,	4,	25,	6,	-1,	-1,	38,	-1,	23,	-1,	8,	18,	43,	-1,	13,	-1,	2,	-1,	47,	-1,	-1,	-1,	-1,	-1,	-1,	26,	37,	36,	34,	-1,	16,	-1,	10,	-1,	-1,	22,	48,	41,	-1,	30,	-1,	-1,	5,	-1,	-1,	-1,	-1,	-1,	31|
-1,	33,	-1,	-1,	-1,	5,	25,	-1,	14,	-1,	31,	-1,	23,	-1,	30,	2,	13,	-1,	38,	-1,	-1,	21,	-1,	-1,	-1,	-1,	-1,	47,	-1,	7,	-1,	-1,	-1,	40,	-1,	-1,	-1,	-1,	-1,	-1,	43,	-1,	-1,	-1,	17,	-1,	12,	29,	-1|
-1,	22,	-1,	-1,	7,	-1,	-1,	-1,	-1,	-1,	36,	-1,	34,	-1,	-1,	9,	-1,	-1,	-1,	-1,	-1,	-1,	40,	-1,	12,	-1,	15,	48,	38,	-1,	-1,	-1,	-1,	-1,	-1,	37,	-1,	-1,	18,	27,	-1,	-1,	-1,	32,	-1,	-1,	47,	46,	-1|
-1,	48,	-1,	-1,	-1,	-1,	-1,	-1,	17,	13,	43,	45,	-1,	-1,	-1,	-1,	-1,	-1,	34,	-1,	27,	22,	36,	19,	-1,	-1,	24,	-1,	-1,	-1,	-1,	47,	15,	-1,	-1,	-1,	26,	-1,	8,	-1,	-1,	-1,	-1,	-1,	-1,	-1,	35,	-1,	-1|
-1,	16,	18,	-1,	32,	-1,	40,	-1,	-1,	-1,	12,	48,	47,	-1,	46,	-1,	-1,	28,	-1,	-1,	-1,	29,	38,	-1,	-1,	-1,	-1,	-1,	-1,	37,	17,	-1,	49,	-1,	-1,	-1,	22,	-1,	-1,	-1,	-1,	11,	-1,	39,	-1,	43,	42,	-1,	-1|
41,	11,	-1,	34,	-1,	-1,	-1,	-1,	-1,	16,	19,	-1,	-1,	-1,	-1,	-1,	-1,	-1,	37,	-1,	12,	-1,	46,	-1,	-1,	2,	-1,	6,	-1,	-1,	24,	-1,	-1,	18,	29,	-1,	-1,	44,	20,	17,	-1,	-1,	-1,	-1,	9,	-1,	-1,	-1,	27|
-1,	-1,	24,	15,	-1,	-1,	-1,	-1,	-1,	8,	3,	-1,	9,	-1,	32,	-1,	29,	-1,	-1,	-1,	-1,	-1,	-1,	-1,	-1,	31,	-1,	16,	-1,	-1,	23,	-1,	-1,	48,	-1,	-1,	34,	-1,	-1,	-1,	19,	41,	20,	38,	-1,	1,	-1,	-1,	28|
-1,	30,	-1,	-1,	6,	31,	-1,	-1,	-1,	-1,	35,	28,	-1,	-1,	-1,	-1,	11,	-1,	-1,	-1,	-1,	43,	25,	49,	32,	-1,	10,	-1,	5,	19,	8,	-1,	-1,	-1,	-1,	-1,	-1,	29,	-1,	-1,	9,	-1,	-1,	-1,	44,	-1,	-1,	3,	16|
-1,	27,	23,	19,	-1,	-1,	5,	-1,	-1,	15,	-1,	-1,	-1,	42,	-1,	-1,	43,	29,	-1,	-1,	24,	-1,	18,	-1,	-1,	-1,	21,	-1,	32,	-1,	-1,	49,	17,	14,	33,	44,	-1,	-1,	37,	-1,	-1,	3,	1,	35,	-1,	-1,	4,	26,	-1|
-1,	6,	26,	18,	17,	-1,	-1,	38,	-1,	23,	-1,	27,	-1,	31,	-1,	-1,	10,	15,	21,	-1,	42,	8,	-1,	-1,	48,	-1,	20,	-1,	-1,	-1,	30,	19,	-1,	-1,	13,	-1,	45,	40,	-1,	-1,	16,	-1,	-1,	-1,	-1,	-1,	5,	-1,	44|
7,	45,	-1,	20,	36,	-1,	-1,	-1,	-1,	22,	-1,	17,	-1,	-1,	4,	47,	-1,	-1,	-1,	-1,	-1,	-1,	-1,	16,	19,	37,	-1,	-1,	-1,	-1,	12,	-1,	-1,	-1,	-1,	-1,	-1,	28,	2,	-1,	-1,	49,	46,	-1,	11,	27,	13,	-1,	6|
-1,	-1,	-1,	-1,	31,	-1,	-1,	12,	-1,	6,	-1,	-1,	29,	-1,	-1,	-1,	37,	5,	-1,	-1,	-1,	-1,	-1,	43,	-1,	34,	32,	28,	3,	-1,	-1,	11,	26,	16,	1,	48,	24,	-1,	-1,	10,	8,	-1,	18,	-1,	-1,	49,	-1,	-1,	-1|
16,	-1,	-1,	-1,	3,	33,	8,	-1,	49,	-1,	-1,	-1,	28,	-1,	20,	-1,	18,	36,	6,	-1,	-1,	-1,	-1,	-1,	-1,	-1,	-1,	-1,	37,	-1,	9,	-1,	-1,	-1,	24,	-1,	-1,	-1,	-1,	43,	-1,	47,	-1,	31,	-1,	-1,	19,	-1,	-1|
-1,	-1,	-1,	11,	-1,	-1,	-1,	-1,	18,	-1,	-1,	-1,	-1,	-1,	14,	7,	-1,	38,	46,	1,	-1,	-1,	24,	6,	-1,	42,	49,	17,	22,	-1,	-1,	-1,	34,	2,	21,	-1,	19,	-1,	-1,	-1,	36,	-1,	9,	15,	-1,	-1,	-1,	16,	33|
-1,	13,	-1,	-1,	34,	46,	37,	-1,	43,	14,	-1,	-1,	-1,	40,	-1,	-1,	16,	-1,	41,	9,	49,	36,	5,	38,	-1,	-1,	-1,	-1,	-1,	45,	-1,	29,	6,	39,	-1,	18,	30,	-1,	-1,	11,	15,	-1,	47,	2,	-1,	-1,	-1,	21,	48|
-1,	36,	-1,	-1,	-1,	25,	-1,	41,	-1,	-1,	-1,	-1,	-1,	-1,	-1,	-1,	42,	17,	20,	-1,	-1,	-1,	13,	34,	-1,	-1,	19,	-1,	16,	-1,	29,	26,	35,	8,	-1,	7,	-1,	-1,	-1,	47,	30,	18,	-1,	-1,	37,	48,	-1,	-1,	-1|
18,	-1,	48,	41,	-1,	24,	27,	42,	-1,	-1,	38,	-1,	-1,	-1,	-1,	39,	-1,	-1,	13,	21,	-1,	-1,	-1,	-1,	28,	47,	-1,	-1,	-1,	44,	-1,	-1,	-1,	-1,	22,	-1,	-1,	-1,	-1,	8,	26,	-1,	16,	20,	25,	9,	30,	-1,	-1|
30,	39,	6,	9,	5,	-1,	-1,	36,	-1,	31,	-1,	-1,	13,	15,	10,	-1,	-1,	26,	-1,	-1,	37,	-1,	2,	17,	-1,	-1,	41,	-1,	-1,	-1,	-1,	-1,	-1,	-1,	-1,	16,	-1,	-1,	-1,	32,	-1,	-1,	-1,	28,	47,	-1,	18,	-1,	43|
13,	8,	-1,	2,	12,	-1,	16,	27,	-1,	-1,	45,	35,	-1,	-1,	-1,	-1,	41,	-1,	-1,	-1,	-1,	48,	-1,	-1,	18,	-1,	25,	23,	14,	24,	-1,	46,	-1,	-1,	32,	43,	10,	-1,	-1,	-1,	-1,	-1,	6,	-1,	-1,	39,	-1,	36,	-1|
38,	-1,	7,	-1,	-1,	-1,	19,	-1,	26,	5,	14,	40,	3,	-1,	-1,	49,	6,	-1,	-1,	-1,	48,	-1,	35,	-1,	-1,	32,	45,	37,	-1,	-1,	2,	-1,	-1,	-1,	-1,	-1,	39,	-1,	15,	-1,	-1,	-1,	13,	-1,	8,	12,	-1,	-1,	-1|
-1,	-1,	-1,	47,	-1,	26,	49,	29,	7,	21,	18,	9,	12,	-1,	-1,	-1,	25,	-1,	1,	-1,	-1,	-1,	-1,	8,	30,	-1,	14,	-1,	17,	13,	-1,	38,	-1,	-1,	43,	-1,	-1,	-1,	-1,	19,	-1,	-1,	-1,	-1,	-1,	-1,	45,	-1,	-1|
-1,	-1,	-1,	-1,	23,	28,	-1,	-1,	-1,	-1,	2,	-1,	37,	48,	-1,	-1,	-1,	-1,	12,	5,	-1,	-1,	-1,	-1,	-1,	-1,	-1,	31,	45,	-1,	-1,	-1,	19,	-1,	-1,	-1,	-1,	-1,	-1,	-1,	-1,	-1,	-1,	-1,	-1,	-1,	-1,	41,	-1|
34,	-1,	41,	-1,	28,	48,	30,	43,	39,	-1,	44,	-1,	-1,	23,	-1,	3,	-1,	-1,	2,	-1,	40,	13,	-1,	26,	47,	-1,	38,	-1,	36,	21,	-1,	17,	12,	-1,	-1,	-1,	-1,	35,	-1,	46,	27,	22,	-1,	-1,	-1,	15,	-1,	6,	-1|
-1,	-1,	-1,	-1,	11,	-1,	-1,	-1,	-1,	-1,	-1,	-1,	-1,	-1,	-1,	27,	-1,	-1,	4,	-1,	14,	5,	-1,	40,	39,	-1,	48,	-1,	-1,	-1,	41,	-1,	9,	-1,	-1,	-1,	-1,	18,	17,	24,	37,	-1,	-1,	8,	-1,	13,	-1,	45,	21|
-1,	5,	45,	-1,	40,	38,	24,	-1,	-1,	-1,	13,	-1,	-1,	26,	-1,	-1,	22,	-1,	-1,	-1,	33,	-1,	-1,	-1,	42,	-1,	-1,	9,	1,	3,	-1,	10,	37,	-1,	44,	-1,	23,	-1,	32,	-1,	-1,	-1,	2,	14,	-1,	-1,	-1,	-1,	-1|
-1,	-1,	-1,	13,	25,	-1,	-1,	-1,	-1,	7,	-1,	-1,	-1,	-1,	9,	20,	28,	1,	-1,	11,	-1,	-1,	8,	-1,	-1,	-1,	36,	19,	-1,	-1,	-1,	-1,	-1,	4,	-1,	-1,	-1,	-1,	-1,	45,	12,	-1,	26,	-1,	-1,	-1,	23,	44,	-1|
-1,	42,	21,	33,	35,	-1,	18,	19,	-1,	-1,	25,	-1,	-1,	-1,	-1,	-1,	-1,	-1,	23,	39,	16,	-1,	-1,	-1,	-1,	45,	2,	30,	40,	6,	-1,	-1,	-1,	27,	-1,	-1,	-1,	-1,	5,	9,	-1,	-1,	41,	-1,	34,	47,	38,	-1,	-1|
-1,	-1,	1,	-1,	-1,	-1,	-1,	-1,	28,	-1,	-1,	-1,	22,	8,	38,	45,	-1,	-1,	-1,	42,	10,	-1,	11,	24,	-1,	-1,	-1,	-1,	-1,	-1,	14,	-1,	-1,	-1,	-1,	-1,	-1,	-1,	-1,	-1,	-1,	2,	35,	-1,	-1,	-1,	-1,	-1,	12|
-1,	-1,	-1,	-1,	-1,	-1,	-1,	-1,	-1,	-1,	-1,	4,	-1,	-1,	-1,	-1,	-1,	48,	35,	-1,	-1,	-1,	41,	18,	22,	-1,	12,	7,	-1,	-1,	-1,	-1,	11,	-1,	-1,	31,	-1,	-1,	-1,	-1,	-1,	-1,	-1,	24,	-1,	42,	36,	-1,	-1|];
