benchmarks_LEQ/INST_49x49/40/inst49x49_40_30.txt
7
1
-1	-1	-1	-1	33	19	22	30	31	-1	6	-1	-1	45	-1	-1	7	-1	-1	-1	-1	34	-1	-1	25	44	5	-1	-1	-1	1	-1	27	24	-1	-1	-1	23	28	15	-1	-1	10	17	21	11	-1	13	-1
-1	-1	-1	21	-1	44	26	-1	16	46	27	1	-1	39	-1	-1	45	-1	42	34	13	12	-1	-1	-1	40	-1	-1	41	-1	-1	30	-1	-1	-1	-1	-1	-1	10	-1	-1	38	4	-1	23	-1	-1	-1	2
45	24	28	8	-1	-1	-1	-1	-1	43	-1	-1	40	-1	47	-1	-1	-1	-1	18	-1	30	-1	-1	-1	-1	-1	13	33	15	39	-1	38	32	5	-1	-1	-1	-1	41	-1	-1	-1	-1	6	25	-1	-1	14
25	49	-1	-1	-1	11	-1	-1	-1	-1	15	-1	-1	-1	1	-1	-1	-1	24	35	-1	-1	17	47	2	-1	-1	-1	-1	-1	-1	-1	-1	-1	-1	12	-1	-1	-1	-1	-1	43	45	-1	-1	5	-1	-1	39
-1	-1	29	48	39	-1	1	-1	-1	-1	23	13	38	-1	28	11	-1	-1	30	15	-1	35	33	10	-1	46	-1	-1	9	17	-1	43	18	-1	-1	-1	16	-1	-1	2	31	-1	3	47	-1	-1	24	-1	-1
23	-1	-1	-1	-1	18	43	-1	35	-1	-1	-1	49	29	44	41	17	-1	19	48	-1	1	-1	-1	9	11	42	39	-1	12	31	34	-1	-1	26	33	37	-1	14	-1	24	-1	-1	-1	-1	32	40	-1	-1
6	-1	-1	40	-1	-1	-1	24	42	-1	-1	-1	-1	21	22	-1	5	-1	32	27	-1	15	45	-1	41	-1	-1	49	10	-1	-1	-1	14	37	11	9	-1	-1	-1	-1	-1	-1	44	36	-1	-1	-1	38	-1
11	-1	17	29	-1	-1	-1	31	-1	39	10	2	-1	3	-1	-1	-1	41	49	24	-1	-1	20	30	-1	18	-1	-1	-1	-1	-1	-1	-1	-1	27	-1	-1	-1	21	1	-1	-1	48	-1	46	-1	34	-1	23
-1	-1	4	-1	-1	-1	-1	23	-1	30	29	22	-1	-1	-1	36	-1	37	-1	-1	-1	27	3	2	-1	14	-1	-1	47	-1	-1	28	-1	-1	45	-1	32	-1	41	-1	-1	-1	-1	-1	-1	16	6	-1	-1
1	18	-1	-1	-1	-1	-1	44	36	-1	-1	-1	-1	9	-1	25	-1	42	27	-1	-1	-1	23	12	-1	-1	-1	-1	-1	10	-1	-1	-1	-1	-1	19	3	-1	-1	31	22	-1	-1	-1	-1	38	2	-1	-1
-1	2	49	-1	30	-1	36	-1	41	-1	5	-1	1	34	-1	-1	4	-1	11	-1	-1	-1	31	-1	33	9	8	-1	19	-1	-1	-1	-1	-1	-1	10	47	-1	-1	-1	7	-1	-1	-1	-1	-1	17	32	-1
19	28	34	44	-1	-1	-1	-1	6	-1	37	-1	25	43	-1	-1	15	8	-1	33	-1	26	-1	48	-1	39	29	-1	-1	31	-1	1	-1	-1	18	-1	-1	-1	-1	-1	-1	30	-1	-1	-1	-1	-1	20	-1
-1	-1	-1	-1	-1	47	20	-1	-1	-1	26	-1	-1	-1	18	29	-1	19	-1	6	-1	-1	-1	-1	1	-1	34	-1	21	-1	-1	-1	-1	-1	-1	-1	-1	-1	-1	-1	-1	-1	-1	4	3	-1	-1	31	-1
31	38	-1	5	24	45	35	40	-1	48	21	-1	-1	-1	3	32	-1	-1	39	-1	20	-1	-1	15	-1	-1	-1	-1	-1	-1	13	-1	-1	12	14	-1	-1	-1	-1	26	-1	-1	42	-1	41	-1	-1	9	11
22	-1	-1	42	16	-1	-1	-1	4	9	-1	24	-1	-1	37	1	27	-1	43	-1	-1	-1	14	-1	-1	-1	33	-1	-1	-1	18	-1	-1	-1	46	34	-1	10	-1	38	-1	-1	-1	44	15	-1	48	-1	-1
17	-1	31	-1	-1	29	-1	13	-1	-1	16	46	-1	-1	45	-1	-1	40	-1	-1	6	-1	34	5	-1	-1	35	15	48	-1	-1	32	-1	-1	-1	-1	-1	33	-1	-1	23	-1	-1	42	4	21	27	-1	-1
21	34	46	-1	-1	-1	33	-1	25	-1	42	-1	-1	-1	49	-1	-1	16	10	20	-1	9	-1	-1	-1	-1	-1	-1	-1	-1	-1	-1	-1	26	12	-1	-1	-1	-1	14	-1	-1	43	-1	-1	-1	-1	-1	22
-1	14	-1	-1	19	-1	-1	-1	-1	-1	34	20	31	33	-1	18	35	4	8	23	-1	-1	-1	-1	-1	-1	-1	-1	-1	42	45	-1	36	-1	3	-1	-1	-1	7	21	-1	-1	-1	-1	-1	26	-1	-1	41
35	44	-1	45	-1	-1	-1	-1	1	-1	-1	-1	-1	-1	19	-1	-1	-1	17	-1	-1	-1	21	31	6	49	27	-1	-1	40	-1	-1	-1	-1	-1	-1	36	-1	26	37	-1	13	-1	33	14	-1	-1	7	-1
37	-1	3	-1	1	-1	-1	-1	-1	-1	-1	-1	-1	-1	26	-1	48	33	-1	-1	-1	42	-1	4	20	-1	-1	-1	-1	9	-1	31	30	44	-1	-1	-1	43	-1	-1	-1	-1	34	-1	-1	-1	-1	39	49
-1	-1	25	6	-1	32	38	-1	-1	-1	8	-1	43	27	13	-1	2	-1	47	-1	-1	-1	-1	-1	-1	-1	-1	36	34	33	-1	-1	-1	-1	-1	-1	48	-1	-1	30	-1	-1	-1	-1	-1	-1	9	-1	-1
26	33	-1	-1	46	5	25	-1	-1	27	-1	11	-1	-1	-1	-1	-1	-1	38	-1	-1	-1	-1	-1	-1	-1	-1	47	-1	-1	10	3	39	40	42	-1	49	32	-1	-1	-1	48	-1	-1	-1	-1	-1	29	34
-1	22	-1	-1	-1	-1	-1	-1	-1	29	-1	-1	34	30	-1	-1	20	39	-1	-1	-1	17	-1	23	12	-1	-1	48	38	14	-1	-1	-1	-1	-1	37	28	-1	-1	-1	-1	31	-1	-1	-1	-1	47	-1	5
-1	-1	-1	-1	-1	9	42	33	-1	13	-1	45	-1	2	-1	-1	-1	21	-1	41	-1	22	-1	19	-1	-1	24	-1	46	28	-1	-1	15	-1	16	-1	-1	39	-1	-1	4	-1	-1	-1	-1	-1	-1	-1	18
20	16	18	-1	32	-1	-1	15	-1	-1	-1	-1	-1	-1	-1	-1	-1	28	-1	-1	26	-1	38	-1	-1	-1	7	-1	-1	-1	-1	27	-1	-1	-1	-1	22	-1	-1	-1	-1	11	-1	-1	-1	43	-1	-1	-1
41	11	-1	34	-1	3	45	7	-1	16	19	-1	-1	-1	42	-1	-1	47	-1	-1	-1	28	-1	13	4	-1	-1	6	-1	-1	24	33	-1	-1	29	-1	38	-1	-1	17	-1	21	-1	-1	9	31	-1	-1	27
-1	37	-1	-1	10	-1	-1	39	-1	-1	-1	-1	-1	49	-1	-1	-1	-1	-1	-1	-1	-1	42	-1	-1	31	11	-1	-1	-1	23	44	45	-1	-1	2	34	-1	12	-1	19	41	20	-1	-1	-1	-1	-1	-1
-1	30	-1	-1	6	-1	39	-1	-1	38	-1	-1	20	1	-1	48	-1	24	22	-1	18	-1	25	-1	-1	-1	-1	-1	-1	-1	8	12	-1	34	-1	13	-1	29	-1	-1	9	-1	33	-1	44	-1	-1	3	-1
-1	27	-1	19	47	30	-1	34	-1	-1	-1	-1	2	42	48	31	43	29	-1	22	24	11	18	46	-1	-1	21	-1	-1	20	-1	49	-1	-1	33	44	7	-1	37	-1	-1	3	1	-1	-1	41	-1	26	-1
49	-1	-1	18	-1	-1	-1	-1	-1	-1	-1	27	36	-1	-1	28	-1	15	-1	-1	-1	8	-1	-1	-1	-1	20	-1	-1	43	30	-1	-1	7	-1	39	45	-1	46	-1	-1	-1	-1	25	24	-1	-1	-1	-1
-1	45	38	20	36	41	9	1	-1	-1	24	-1	-1	-1	-1	-1	-1	-1	-1	8	-1	39	-1	-1	-1	37	30	-1	-1	-1	-1	-1	48	-1	-1	-1	-1	28	-1	33	-1	-1	46	-1	-1	-1	-1	43	-1
-1	-1	-1	-1	-1	-1	-1	12	-1	-1	46	-1	29	-1	-1	19	-1	-1	-1	13	-1	47	-1	-1	-1	-1	-1	-1	-1	-1	36	-1	26	-1	1	48	-1	-1	-1	-1	-1	4	18	-1	45	-1	39	-1	38
-1	21	39	-1	-1	-1	-1	-1	-1	-1	-1	-1	-1	-1	-1	-1	18	36	6	30	34	-1	29	-1	15	22	-1	45	-1	-1	9	-1	23	46	-1	35	-1	-1	13	43	38	-1	-1	31	42	10	19	-1	40
32	-1	-1	-1	4	12	-1	47	18	-1	41	-1	30	-1	14	7	39	-1	46	1	-1	-1	-1	-1	-1	42	-1	-1	-1	-1	-1	40	34	2	-1	-1	-1	20	27	-1	-1	-1	-1	15	-1	-1	3	-1	-1
-1	-1	44	24	34	-1	-1	-1	43	14	-1	8	19	-1	23	-1	-1	32	41	9	-1	-1	-1	38	-1	-1	3	4	-1	-1	27	29	-1	-1	10	18	-1	-1	31	11	-1	-1	-1	2	20	7	-1	-1	-1
-1	-1	14	-1	21	-1	-1	-1	46	-1	32	43	-1	-1	-1	-1	-1	-1	-1	45	9	24	-1	34	-1	-1	-1	27	16	39	29	26	-1	8	-1	-1	-1	-1	11	47	-1	-1	-1	-1	37	-1	-1	-1	15
18	-1	48	-1	45	24	27	-1	-1	-1	38	34	4	-1	33	39	-1	11	13	21	-1	10	-1	-1	-1	-1	-1	-1	-1	44	7	-1	-1	-1	22	-1	-1	2	-1	8	26	-1	-1	-1	-1	9	30	-1	-1
-1	-1	6	-1	5	-1	44	-1	24	31	11	23	-1	15	10	40	-1	26	14	-1	37	-1	2	-1	-1	-1	-1	3	12	-1	25	21	-1	42	-1	-1	-1	22	-1	32	-1	20	7	28	-1	35	-1	-1	-1
13	-1	33	-1	-1	-1	-1	-1	-1	-1	45	35	17	20	15	-1	-1	-1	-1	-1	-1	-1	-1	-1	-1	38	25	-1	14	-1	40	-1	-1	-1	-1	-1	10	-1	44	3	-1	-1	6	21	31	-1	11	-1	4
-1	-1	7	22	43	17	-1	-1	-1	-1	-1	40	3	-1	-1	-1	-1	-1	-1	31	-1	20	-1	44	11	-1	-1	-1	-1	-1	2	23	-1	9	-1	-1	-1	-1	-1	4	21	-1	-1	10	8	-1	29	-1	46
10	20	-1	-1	-1	-1	-1	-1	-1	-1	-1	-1	-1	-1	-1	35	-1	-1	-1	-1	-1	-1	39	8	30	15	14	-1	-1	-1	-1	-1	-1	-1	43	-1	31	-1	-1	-1	-1	34	-1	22	-1	2	45	-1	-1
29	35	15	-1	23	-1	-1	-1	-1	-1	-1	-1	-1	48	-1	-1	-1	3	12	-1	47	16	-1	9	-1	-1	22	31	-1	-1	33	-1	19	10	-1	14	-1	-1	6	-1	-1	25	-1	-1	-1	-1	26	-1	-1
34	31	-1	7	-1	48	30	-1	-1	-1	44	-1	-1	-1	-1	-1	-1	18	2	-1	40	-1	-1	26	-1	20	38	33	-1	-1	-1	-1	12	-1	19	29	8	-1	-1	-1	27	-1	-1	-1	16	-1	32	-1	-1
-1	-1	47	-1	-1	43	-1	3	-1	-1	-1	15	-1	36	-1	-1	19	-1	-1	-1	14	-1	-1	-1	39	28	48	-1	-1	35	-1	-1	-1	30	-1	-1	-1	18	17	24	-1	-1	49	-1	22	-1	31	-1	21
-1	5	45	-1	-1	38	24	-1	27	47	-1	-1	21	-1	-1	-1	22	-1	7	36	33	25	-1	35	42	29	-1	-1	-1	3	-1	-1	-1	31	-1	-1	23	-1	-1	-1	-1	-1	-1	14	-1	-1	-1	-1	-1
-1	-1	-1	13	25	6	-1	32	5	7	-1	-1	35	46	9	20	28	1	-1	-1	-1	-1	8	-1	34	-1	-1	19	-1	-1	48	15	16	4	38	3	-1	-1	-1	-1	12	42	-1	-1	-1	-1	-1	-1	-1
36	-1	21	-1	35	-1	-1	19	-1	-1	-1	31	11	-1	29	46	-1	13	23	39	-1	37	32	-1	17	45	2	-1	-1	6	43	-1	-1	27	8	-1	14	-1	-1	9	49	-1	-1	-1	-1	47	38	-1	7
-1	26	1	-1	44	-1	-1	-1	-1	-1	40	-1	22	-1	-1	45	-1	49	-1	42	-1	-1	11	24	-1	-1	43	-1	-1	32	14	13	-1	33	47	21	-1	-1	-1	48	41	2	35	-1	-1	-1	-1	-1	12
-1	19	-1	-1	-1	-1	-1	-1	38	-1	-1	4	-1	-1	-1	-1	-1	48	35	-1	-1	-1	41	-1	22	-1	12	7	39	-1	-1	45	-1	-1	-1	-1	13	30	1	34	-1	-1	-1	-1	40	-1	-1	25	-1
49 
44 11 3 42
20 6 42 11
23 38 24 25
4 35 22 20
43 34 24 26
4 34 29 38
3 26 20 12
34 30 33 7
45 28 2 18
25 41 18 6
9 28 30 15
13 4 36 38
40 43 41 30
13 14 5 25
40 39 9 1
48 8 10 20
32 48 22 45
21 12 39 25
8 44 2 34
10 10 45 8
5 28 28 33
6 24 2 8
43 14 11 6
13 49 10 32
34 21 16 39
23 45 15 13
33 24 17 5
17 36 48 9
18 45 41 8
42 9 15 11
15 18 28 6
32 27 31 14
34 49 40 48
45 31 9 30
20 14 8 15
27 40 23 11
49 8 8 31
36 43 34 18
26 27 13 39
20 10 18 28
36 8 23 32
41 28 1 29
23 1 22 41
21 16 24 1
44 48 38 39
38 41 45 47
17 27 2 31
2 13 40 21
32 46 43 23
